jobs  (incl. supersource/sink ):	52
RESOURCES
- renewable                 : 4 R
- nonrenewable              : 4 N
- doubly constrained        : 0 D
************************************************************************
PRECEDENCE RELATIONS:
jobnr.    #modes  #successors   successors
1	1	10		2 4 5 6 7 8 10 11 12 15 
2	6	4		26 18 17 3 
3	6	5		25 22 19 14 9 
4	6	7		36 30 26 22 21 19 9 
5	6	6		28 24 22 20 16 13 
6	6	5		37 28 19 17 16 
7	6	6		37 30 27 22 19 17 
8	6	9		36 32 30 29 28 27 22 21 20 
9	6	9		51 37 32 29 28 27 24 23 20 
10	6	8		41 36 32 30 29 24 23 22 
11	6	7		41 36 34 26 25 24 23 
12	6	5		32 30 28 24 19 
13	6	9		50 41 37 34 32 30 29 27 23 
14	6	7		37 36 34 30 29 23 21 
15	6	7		51 37 36 32 31 28 20 
16	6	8		51 50 41 36 34 32 27 23 
17	6	4		36 24 23 20 
18	6	5		50 34 27 24 23 
19	6	9		51 50 41 40 35 34 33 31 29 
20	6	10		50 48 46 45 41 40 39 38 35 34 
21	6	9		51 50 47 46 40 39 38 35 33 
22	6	8		51 50 49 47 40 39 35 31 
23	6	7		49 48 47 40 35 33 31 
24	6	7		48 47 46 40 39 33 31 
25	6	8		50 49 48 47 45 44 37 35 
26	6	8		51 48 46 45 44 43 40 38 
27	6	7		47 46 45 44 39 38 35 
28	6	5		46 39 38 35 33 
29	6	7		48 47 46 45 44 43 38 
30	6	2		46 33 
31	6	4		45 44 43 38 
32	6	4		46 44 39 38 
33	6	4		45 44 43 42 
34	6	3		49 44 43 
35	6	2		43 42 
36	6	2		48 43 
37	6	2		43 42 
38	6	1		42 
39	6	1		42 
40	6	1		42 
41	6	1		47 
42	6	1		52 
43	6	1		52 
44	6	1		52 
45	6	1		52 
46	6	1		52 
47	6	1		52 
48	6	1		52 
49	6	1		52 
50	6	1		52 
51	6	1		52 
52	1	0		
************************************************************************
REQUESTS/DURATIONS
jobnr.	mode	dur	R1	R2	R3	R4	N1	N2	N3	N4	
------------------------------------------------------------------------
1	1	0	0	0	0	0	0	0	0	0	
2	1	1	2	2	3	4	17	21	26	25	
	2	8	2	2	3	4	13	21	21	24	
	3	12	2	2	3	4	13	15	17	21	
	4	15	2	2	3	4	11	14	13	18	
	5	20	2	2	3	4	8	7	8	12	
	6	25	2	2	3	4	7	4	5	10	
3	1	6	2	4	5	1	12	17	28	24	
	2	13	2	3	4	1	10	13	26	23	
	3	16	2	3	4	1	10	12	21	23	
	4	22	2	3	3	1	9	9	20	23	
	5	24	2	2	2	1	8	7	18	23	
	6	29	2	2	2	1	6	7	14	23	
4	1	6	4	5	2	5	23	24	22	29	
	2	7	4	5	1	4	20	23	20	26	
	3	9	3	5	1	3	17	21	19	25	
	4	18	3	5	1	3	11	21	18	21	
	5	21	3	5	1	2	8	18	16	19	
	6	30	2	5	1	1	6	17	15	18	
5	1	2	3	3	1	2	10	14	5	6	
	2	11	2	3	1	2	10	13	5	5	
	3	17	2	3	1	2	10	10	5	4	
	4	22	2	3	1	2	10	7	5	4	
	5	25	2	3	1	2	9	7	5	3	
	6	27	2	3	1	2	9	3	5	3	
6	1	1	4	4	5	2	9	14	9	26	
	2	3	3	3	5	2	8	14	7	26	
	3	6	3	3	5	2	8	14	7	25	
	4	9	3	3	5	1	8	13	6	26	
	5	21	2	3	5	1	8	12	5	26	
	6	25	2	3	5	1	8	12	4	26	
7	1	1	4	3	5	3	27	27	17	30	
	2	6	4	2	4	2	26	24	17	28	
	3	11	4	2	4	2	23	19	14	28	
	4	18	3	2	3	2	21	13	12	28	
	5	29	2	1	3	2	19	8	9	26	
	6	30	2	1	3	2	19	4	5	26	
8	1	4	5	4	2	3	12	7	15	26	
	2	15	4	3	1	3	9	7	10	21	
	3	16	4	3	1	3	8	6	10	20	
	4	21	4	2	1	3	8	6	7	18	
	5	22	3	2	1	3	5	6	3	16	
	6	23	3	1	1	3	5	5	2	13	
9	1	1	5	5	2	4	17	19	9	23	
	2	5	4	4	2	3	15	16	8	22	
	3	7	3	4	2	3	13	14	7	20	
	4	15	2	3	2	2	7	11	5	16	
	5	16	2	3	2	2	5	11	5	12	
	6	18	1	2	2	1	4	7	4	8	
10	1	3	3	4	4	4	30	12	22	16	
	2	13	2	3	3	3	25	9	21	14	
	3	14	2	3	3	3	25	8	17	14	
	4	17	2	3	3	3	21	6	15	12	
	5	18	2	2	2	1	20	4	14	11	
	6	19	2	1	2	1	17	2	13	10	
11	1	5	4	4	2	5	5	25	16	27	
	2	11	4	4	2	4	5	24	14	26	
	3	17	4	4	2	4	5	23	14	20	
	4	18	4	4	2	3	5	23	12	18	
	5	21	4	4	2	3	5	22	11	14	
	6	24	4	4	2	3	5	21	10	14	
12	1	1	5	5	5	5	18	1	13	21	
	2	6	4	5	4	4	17	1	12	14	
	3	9	4	5	4	4	15	1	12	14	
	4	22	4	5	4	3	15	1	12	7	
	5	23	3	5	4	2	13	1	12	5	
	6	24	3	5	4	2	11	1	12	3	
13	1	8	4	3	4	5	9	22	30	14	
	2	12	4	3	4	3	8	22	27	14	
	3	13	3	2	4	3	8	21	27	10	
	4	23	3	2	4	2	7	20	26	10	
	5	24	2	1	4	1	7	18	24	6	
	6	26	2	1	4	1	7	18	24	5	
14	1	12	4	4	4	4	26	30	23	19	
	2	13	4	3	3	4	24	25	23	16	
	3	15	4	3	2	4	23	20	20	16	
	4	22	3	3	2	4	22	18	19	12	
	5	26	3	3	1	4	21	13	18	10	
	6	30	3	3	1	4	20	9	15	7	
15	1	6	4	3	5	3	21	18	15	21	
	2	9	4	3	3	3	21	18	14	18	
	3	10	3	3	3	3	21	18	11	14	
	4	11	3	3	2	2	21	18	10	10	
	5	20	1	3	2	2	21	18	7	9	
	6	28	1	3	1	2	21	18	6	6	
16	1	2	4	3	4	2	8	12	26	21	
	2	15	4	2	4	2	8	8	19	20	
	3	16	4	2	4	2	8	7	18	19	
	4	17	3	2	4	2	7	5	14	19	
	5	19	3	2	4	2	6	4	9	18	
	6	27	3	2	4	2	6	2	5	17	
17	1	8	3	2	5	5	20	27	19	23	
	2	13	2	2	3	4	17	26	19	22	
	3	14	2	2	3	4	16	25	18	22	
	4	16	2	2	2	4	10	24	18	19	
	5	22	2	2	2	4	10	23	18	19	
	6	26	2	2	1	4	4	23	17	18	
18	1	4	5	3	3	5	5	28	19	23	
	2	5	4	3	3	4	4	26	17	22	
	3	14	4	3	3	3	4	23	13	21	
	4	15	4	3	3	3	3	22	11	21	
	5	20	3	3	3	3	2	20	7	19	
	6	21	3	3	3	2	2	20	7	18	
19	1	9	2	3	2	1	13	18	20	19	
	2	15	2	3	2	1	11	16	17	16	
	3	17	2	3	2	1	10	14	15	12	
	4	18	2	3	2	1	10	11	12	12	
	5	27	2	3	2	1	8	11	10	8	
	6	30	2	3	2	1	8	8	8	7	
20	1	2	4	4	5	3	13	21	13	25	
	2	7	3	3	3	3	11	18	13	24	
	3	9	3	3	3	2	9	15	11	17	
	4	13	3	2	3	2	6	11	10	12	
	5	17	3	2	1	2	3	8	9	6	
	6	19	3	2	1	1	1	1	9	3	
21	1	5	4	1	4	4	14	28	24	26	
	2	10	3	1	4	4	12	25	22	22	
	3	12	3	1	4	4	12	24	21	20	
	4	16	2	1	4	3	10	23	21	19	
	5	17	2	1	4	2	10	21	20	18	
	6	18	2	1	4	2	9	20	18	14	
22	1	8	5	5	3	1	27	18	27	24	
	2	9	3	4	3	1	25	16	25	23	
	3	10	3	4	3	1	23	16	24	23	
	4	11	2	3	3	1	19	14	22	21	
	5	14	2	3	3	1	19	11	20	20	
	6	26	1	2	3	1	17	10	19	19	
23	1	2	5	1	3	4	18	17	26	19	
	2	3	4	1	3	4	13	15	24	18	
	3	5	4	1	3	4	13	14	20	17	
	4	13	4	1	3	4	11	13	18	16	
	5	15	4	1	3	4	6	13	17	15	
	6	25	4	1	3	4	5	11	15	15	
24	1	3	3	4	5	1	25	20	29	5	
	2	6	3	3	5	1	22	19	23	5	
	3	11	3	3	5	1	21	19	21	5	
	4	12	3	3	5	1	18	18	15	5	
	5	20	3	2	5	1	16	18	15	5	
	6	28	3	2	5	1	14	18	11	5	
25	1	7	5	4	5	3	9	24	15	19	
	2	8	4	3	4	3	8	23	14	18	
	3	14	3	3	4	3	7	17	12	18	
	4	16	3	3	4	3	6	16	8	17	
	5	21	1	2	4	3	5	12	7	16	
	6	22	1	2	4	3	5	10	6	16	
26	1	4	3	2	5	4	19	18	25	25	
	2	8	2	1	5	3	18	18	25	25	
	3	12	2	1	5	3	18	16	25	23	
	4	15	1	1	5	2	17	14	24	23	
	5	24	1	1	5	2	17	11	24	21	
	6	29	1	1	5	2	17	9	24	21	
27	1	3	2	3	4	2	17	20	25	17	
	2	5	2	2	4	2	13	17	20	14	
	3	11	2	2	3	2	12	14	15	14	
	4	15	2	2	3	2	9	11	12	12	
	5	20	2	2	2	2	7	7	5	10	
	6	29	2	2	2	2	5	5	2	8	
28	1	13	5	4	5	3	23	26	19	27	
	2	14	4	3	4	3	21	26	16	23	
	3	16	4	3	3	3	17	26	14	23	
	4	19	3	3	2	3	14	25	10	22	
	5	23	3	2	1	3	12	25	4	19	
	6	27	3	1	1	3	7	25	4	17	
29	1	11	5	3	4	3	9	22	17	21	
	2	14	5	3	3	3	8	19	14	21	
	3	20	5	3	3	3	7	18	13	21	
	4	26	5	3	3	3	6	16	11	21	
	5	28	5	3	3	3	6	14	10	21	
	6	30	5	3	3	3	4	13	9	21	
30	1	10	5	5	4	2	22	11	11	24	
	2	13	4	5	4	2	20	11	10	21	
	3	14	4	5	4	2	20	11	10	19	
	4	21	3	5	3	2	17	11	8	17	
	5	22	3	5	3	2	17	11	8	15	
	6	27	3	5	3	2	15	11	7	13	
31	1	11	4	3	4	4	26	7	14	23	
	2	13	3	3	3	4	24	6	11	23	
	3	17	3	3	3	4	23	5	7	23	
	4	19	2	3	2	4	20	5	7	23	
	5	28	2	3	2	4	19	4	3	23	
	6	29	1	3	1	4	19	4	1	23	
32	1	4	3	3	4	1	24	28	20	24	
	2	5	3	3	4	1	23	24	18	23	
	3	6	3	3	4	1	21	20	15	23	
	4	8	3	3	3	1	20	14	11	23	
	5	19	3	2	3	1	17	14	11	23	
	6	29	3	2	3	1	14	8	6	23	
33	1	1	4	5	4	2	28	26	23	17	
	2	11	4	4	4	2	25	26	17	15	
	3	12	4	4	3	2	23	25	15	12	
	4	15	4	4	3	2	22	25	12	10	
	5	16	3	4	3	2	20	24	4	7	
	6	21	3	4	2	2	18	24	1	5	
34	1	9	2	2	4	4	12	24	28	28	
	2	10	2	2	4	4	10	22	25	24	
	3	21	2	2	4	4	10	20	23	22	
	4	22	2	2	3	4	9	18	18	17	
	5	23	2	1	2	4	8	16	17	16	
	6	25	2	1	2	4	7	14	14	13	
35	1	1	3	1	4	4	8	25	25	24	
	2	4	3	1	4	3	7	22	17	20	
	3	5	3	1	4	2	7	21	14	20	
	4	15	2	1	4	2	6	20	11	17	
	5	23	1	1	4	1	5	18	7	13	
	6	25	1	1	4	1	4	16	1	10	
36	1	4	1	5	4	5	6	21	27	26	
	2	12	1	4	3	4	6	18	27	23	
	3	14	1	4	3	4	5	16	24	19	
	4	18	1	3	3	4	5	15	23	16	
	5	19	1	3	3	4	4	10	23	16	
	6	24	1	2	3	4	4	8	20	9	
37	1	6	2	2	3	5	10	24	20	28	
	2	14	1	1	3	4	10	21	18	25	
	3	15	1	1	3	4	10	16	16	21	
	4	23	1	1	3	4	10	14	15	17	
	5	25	1	1	3	4	10	10	12	13	
	6	30	1	1	3	4	10	9	11	10	
38	1	4	5	4	3	4	26	22	23	17	
	2	7	4	3	3	4	26	21	20	14	
	3	13	4	3	3	4	24	18	20	13	
	4	14	4	2	3	4	23	16	19	10	
	5	16	4	2	3	3	23	16	17	9	
	6	22	4	2	3	3	22	12	14	7	
39	1	7	5	3	3	4	23	23	25	26	
	2	18	4	3	3	4	21	19	25	26	
	3	20	4	3	3	3	18	15	17	26	
	4	22	4	2	3	2	16	13	15	25	
	5	23	4	2	3	2	15	10	10	24	
	6	24	4	1	3	1	12	8	4	24	
40	1	8	4	4	4	5	28	19	23	29	
	2	10	3	4	4	4	26	18	21	29	
	3	15	3	4	3	4	24	17	18	28	
	4	24	2	3	3	4	24	16	15	28	
	5	26	2	2	2	4	21	16	9	27	
	6	30	2	2	2	4	20	15	8	27	
41	1	3	4	3	2	2	27	27	17	20	
	2	9	3	3	2	1	24	22	16	17	
	3	13	3	2	2	1	17	17	15	15	
	4	16	3	2	2	1	13	10	14	10	
	5	19	3	2	2	1	8	8	13	8	
	6	21	3	1	2	1	6	2	12	4	
42	1	15	1	3	5	3	16	11	6	3	
	2	21	1	3	4	2	16	9	5	3	
	3	23	1	2	4	2	14	8	5	3	
	4	27	1	2	3	2	14	7	4	2	
	5	29	1	2	3	1	11	6	4	2	
	6	30	1	1	2	1	10	6	4	2	
43	1	6	4	4	4	3	21	20	28	25	
	2	10	3	3	4	3	18	18	22	25	
	3	14	3	3	4	3	17	15	16	24	
	4	27	3	2	4	3	16	14	13	24	
	5	28	1	2	3	3	14	10	8	23	
	6	29	1	1	3	3	12	7	6	23	
44	1	7	3	1	3	2	16	22	27	19	
	2	8	3	1	3	1	16	20	23	18	
	3	10	2	1	3	1	14	17	17	17	
	4	11	2	1	3	1	12	15	12	17	
	5	15	2	1	2	1	8	13	6	16	
	6	19	1	1	2	1	6	12	2	16	
45	1	6	3	4	4	4	19	10	24	18	
	2	8	2	4	4	4	17	9	23	15	
	3	9	2	4	4	4	11	9	23	13	
	4	11	1	3	3	3	9	8	23	10	
	5	12	1	3	2	2	6	7	23	10	
	6	30	1	3	2	2	1	7	23	6	
46	1	3	4	2	4	4	9	15	17	17	
	2	12	3	2	3	4	9	15	17	15	
	3	14	3	2	3	4	8	15	17	15	
	4	15	3	2	2	4	7	15	17	15	
	5	23	3	2	1	4	6	14	17	13	
	6	25	3	2	1	4	6	14	17	12	
47	1	5	4	2	4	4	29	28	11	11	
	2	6	4	2	4	3	28	23	11	11	
	3	21	4	2	4	3	28	21	10	11	
	4	24	3	2	4	2	28	18	9	11	
	5	25	3	2	4	2	28	15	8	10	
	6	28	2	2	4	1	28	9	7	10	
48	1	9	5	5	4	3	18	19	13	24	
	2	10	4	4	4	3	17	18	13	24	
	3	17	4	4	4	3	17	16	11	24	
	4	18	4	3	4	3	16	15	11	23	
	5	19	4	3	3	2	16	14	9	23	
	6	26	4	3	3	2	16	14	9	22	
49	1	2	3	4	4	3	29	4	10	17	
	2	12	3	4	3	3	24	3	9	16	
	3	15	3	4	3	2	19	3	9	14	
	4	25	3	4	3	2	10	2	8	13	
	5	27	3	4	3	1	10	1	6	11	
	6	30	3	4	3	1	2	1	6	10	
50	1	8	3	5	4	4	22	27	23	18	
	2	10	3	4	3	4	19	26	23	15	
	3	12	3	4	3	4	15	25	23	15	
	4	16	2	3	3	4	9	25	23	10	
	5	22	2	3	3	4	6	24	23	9	
	6	26	1	3	3	4	3	23	23	4	
51	1	1	3	5	5	4	15	17	26	16	
	2	9	3	4	3	3	12	12	25	13	
	3	15	3	3	3	2	12	11	23	12	
	4	18	3	3	2	2	11	7	23	12	
	5	23	2	3	1	1	7	5	21	10	
	6	25	2	2	1	1	7	5	20	10	
52	1	0	0	0	0	0	0	0	0	0	
************************************************************************

 RESOURCE AVAILABILITIES 
	R 1	R 2	R 3	R 4	N 1	N 2	N 3	N 4
	29	29	30	30	790	868	872	955

************************************************************************
